p cnf 13 49
2 -3 4 0
5 -7 -11 0
-3 7 12 0
-2 4 10 0
-3 5 -7 0
-1 -6 10 0
-8 10 -11 0
2 3 -7 0
1 -3 13 0
-3 -4 -10 0
2 -9 -12 0
2 -6 -11 0
-2 6 -8 0
1 3 7 0
-7 -8 -12 0
3 -9 -10 0
-4 6 -10 0
-4 -12 -13 0
-1 4 13 0
7 9 11 0
-3 -4 12 0
1 -4 -11 0
-4 -9 -10 0
-1 7 10 0
-4 11 12 0
10 -12 13 0
-1 -4 9 0
1 -4 -8 0
1 -5 -10 0
8 -11 -12 0
-1 3 13 0
-5 6 -7 0
-6 -8 10 0
-3 10 11 0
-1 -10 11 0
-1 -11 13 0
5 10 -11 0
3 -9 11 0
7 -10 13 0
7 -10 11 0
3 -9 -12 0
-4 5 -11 0
6 -9 -10 0
-8 -10 12 0
-1 2 -7 0
-1 5 12 0
4 -10 13 0
5 6 9 0
-8 -11 13 0
